;;\000\001\002\003\004\005\006\007\010\011\012\013\014\015\016\017\020\021\022\023\024\025\026\027\030\031\032\033\034\035\036\037\040\041\042\043\044\045\046\047\050\051\052\053\054\055\056\057\060\061\062\063\064\065\066\067\070\071\072\073\074\075\076\077\100\101\102\103\104\105\106\107\110\111\112\113\114\115\116\117\120\121\122\123\124\125\126\127\130\131\132\133\134\135\136\137\140\141\142\143\144\145\146\147\150\151\152\153\154\155\156\157\160\161\162\163\164\165\166\167\170\171\172\173\174\175\176\177\200\201\202\203\204\205\206\207\210\211\212\213\214\215\216\217\220\221\222\223\224\225\226\227\230\231\232\233\234\235\236\237\240\241\242\243\244\245\246\247\250\251\252\253\254\255\256\257\260\261\262\263\264\265\266\267\270\271\272\273\274\275\276\277\300\301\302\303\304\305\306\307\310\311\312\313\314\315\316\317\320\321\322\323\324\325\326\327\330\331\332\333\334\335\336\337\340\341\342\343\344\345\346\347\350\351\352\353\354\355\356\357\360\361\362\363\364\365\366\367\370\371\372\373\374\375\376\377

(set-option :produce-models true)
(set-option :inline-size-limit 10000)

(declare-const var0 String)

(assert (str.in.re var0 (re.* (re.range "\x01" "\xff"))))

(assert (str.in.re var0 (re.++ (re.*? re.allchar) (re.++ (re.++ (str.to.re "\u{0000}") (re.++ (str.to.re "\u{0001}") (re.++ (str.to.re "\u{0002}") (re.++ (str.to.re "\u{0003}") (re.++ (str.to.re "\u{0004}") (re.++ (str.to.re "\u{0005}") (re.++ (str.to.re "\u{0006}") (re.++ (str.to.re "\u{0007}") (re.++ (str.to.re "\u{0008}") (re.++ (str.to.re "\u{0009}") (re.++ (str.to.re "\u{000a}") (re.++ (str.to.re "\u{000b}") (re.++ (str.to.re "\u{000c}") (re.++ (str.to.re "\u{000d}") (re.++ (str.to.re "\u{000e}") (re.++ (str.to.re "\u{000f}") (re.++ (str.to.re "\u{0010}") (re.++ (str.to.re "\u{0011}") (re.++ (str.to.re "\u{0012}") (re.++ (str.to.re "\u{0013}") (re.++ (str.to.re "\u{0014}") (re.++ (str.to.re "\u{0015}") (re.++ (str.to.re "\u{0016}") (re.++ (str.to.re "\u{0017}") (re.++ (str.to.re "\u{0018}") (re.++ (str.to.re "\u{0019}") (re.++ (str.to.re "\u{001a}") (re.++ (str.to.re "\u{001b}") (re.++ (str.to.re "\u{001c}") (re.++ (str.to.re "\u{001d}") (re.++ (str.to.re "\u{001e}") (re.++ (str.to.re "\u{001f}") (re.++ (str.to.re "\u{0020}") (re.++ (str.to.re "\u{0021}") (re.++ (str.to.re "\u{0022}") (re.++ (str.to.re "\u{0023}") (re.++ (str.to.re "\u{0024}") (re.++ (str.to.re "\u{0025}") (re.++ (str.to.re "\u{0026}") (re.++ (str.to.re "\u{0027}") (re.++ (str.to.re "\u{0028}") (re.++ (str.to.re "\u{0029}") (re.++ (str.to.re "\u{002a}") (re.++ (str.to.re "\u{002b}") (re.++ (str.to.re "\u{002c}") (re.++ (str.to.re "\u{002d}") (re.++ (str.to.re "\u{002e}") (re.++ (str.to.re "\u{002f}") (re.++ (str.to.re "\u{0030}") (re.++ (str.to.re "\u{0031}") (re.++ (str.to.re "\u{0032}") (re.++ (str.to.re "\u{0033}") (re.++ (str.to.re "\u{0034}") (re.++ (str.to.re "\u{0035}") (re.++ (str.to.re "\u{0036}") (re.++ (str.to.re "\u{0037}") (re.++ (str.to.re "\u{0038}") (re.++ (str.to.re "\u{0039}") (re.++ (str.to.re "\u{003a}") (re.++ (str.to.re "\u{003b}") (re.++ (str.to.re "\u{003c}") (re.++ (str.to.re "\u{003d}") (re.++ (str.to.re "\u{003e}") (re.++ (str.to.re "\u{003f}") (re.++ (_ re.reference 100) (re.++ (_ re.reference 101) (re.++ (_ re.reference 102) (re.++ (_ re.reference 103) (re.++ (_ re.reference 104) (re.++ (_ re.reference 105) (re.++ (_ re.reference 106) (re.++ (_ re.reference 107) (re.++ (_ re.reference 110) (re.++ (_ re.reference 111) (re.++ (_ re.reference 112) (re.++ (_ re.reference 113) (re.++ (_ re.reference 114) (re.++ (_ re.reference 115) (re.++ (_ re.reference 116) (re.++ (_ re.reference 117) (re.++ (_ re.reference 120) (re.++ (_ re.reference 121) (re.++ (_ re.reference 122) (re.++ (_ re.reference 123) (re.++ (_ re.reference 124) (re.++ (_ re.reference 125) (re.++ (_ re.reference 126) (re.++ (_ re.reference 127) (re.++ (_ re.reference 130) (re.++ (_ re.reference 131) (re.++ (_ re.reference 132) (re.++ (_ re.reference 133) (re.++ (_ re.reference 134) (re.++ (_ re.reference 135) (re.++ (_ re.reference 136) (re.++ (_ re.reference 137) (re.++ (_ re.reference 140) (re.++ (_ re.reference 141) (re.++ (_ re.reference 142) (re.++ (_ re.reference 143) (re.++ (_ re.reference 144) (re.++ (_ re.reference 145) (re.++ (_ re.reference 146) (re.++ (_ re.reference 147) (re.++ (_ re.reference 150) (re.++ (_ re.reference 151) (re.++ (_ re.reference 152) (re.++ (_ re.reference 153) (re.++ (_ re.reference 154) (re.++ (_ re.reference 155) (re.++ (_ re.reference 156) (re.++ (_ re.reference 157) (re.++ (_ re.reference 160) (re.++ (_ re.reference 161) (re.++ (_ re.reference 162) (re.++ (_ re.reference 163) (re.++ (_ re.reference 164) (re.++ (_ re.reference 165) (re.++ (_ re.reference 166) (re.++ (_ re.reference 167) (re.++ (_ re.reference 170) (re.++ (_ re.reference 171) (re.++ (_ re.reference 172) (re.++ (_ re.reference 173) (re.++ (_ re.reference 174) (re.++ (_ re.reference 175) (re.++ (_ re.reference 176) (re.++ (_ re.reference 177) (re.++ (_ re.reference 200) (re.++ (_ re.reference 201) (re.++ (_ re.reference 202) (re.++ (_ re.reference 203) (re.++ (_ re.reference 204) (re.++ (_ re.reference 205) (re.++ (_ re.reference 206) (re.++ (_ re.reference 207) (re.++ (_ re.reference 210) (re.++ (_ re.reference 211) (re.++ (_ re.reference 212) (re.++ (_ re.reference 213) (re.++ (_ re.reference 214) (re.++ (_ re.reference 215) (re.++ (_ re.reference 216) (re.++ (_ re.reference 217) (re.++ (_ re.reference 220) (re.++ (_ re.reference 221) (re.++ (_ re.reference 222) (re.++ (_ re.reference 223) (re.++ (_ re.reference 224) (re.++ (_ re.reference 225) (re.++ (_ re.reference 226) (re.++ (_ re.reference 227) (re.++ (_ re.reference 230) (re.++ (_ re.reference 231) (re.++ (_ re.reference 232) (re.++ (_ re.reference 233) (re.++ (_ re.reference 234) (re.++ (_ re.reference 235) (re.++ (_ re.reference 236) (re.++ (_ re.reference 237) (re.++ (_ re.reference 240) (re.++ (_ re.reference 241) (re.++ (_ re.reference 242) (re.++ (_ re.reference 243) (re.++ (_ re.reference 244) (re.++ (_ re.reference 245) (re.++ (_ re.reference 246) (re.++ (_ re.reference 247) (re.++ (_ re.reference 250) (re.++ (_ re.reference 251) (re.++ (_ re.reference 252) (re.++ (_ re.reference 253) (re.++ (_ re.reference 254) (re.++ (_ re.reference 255) (re.++ (_ re.reference 256) (re.++ (_ re.reference 257) (re.++ (_ re.reference 260) (re.++ (_ re.reference 261) (re.++ (_ re.reference 262) (re.++ (_ re.reference 263) (re.++ (_ re.reference 264) (re.++ (_ re.reference 265) (re.++ (_ re.reference 266) (re.++ (_ re.reference 267) (re.++ (_ re.reference 270) (re.++ (_ re.reference 271) (re.++ (_ re.reference 272) (re.++ (_ re.reference 273) (re.++ (_ re.reference 274) (re.++ (_ re.reference 275) (re.++ (_ re.reference 276) (re.++ (_ re.reference 277) (re.++ (_ re.reference 300) (re.++ (_ re.reference 301) (re.++ (_ re.reference 302) (re.++ (_ re.reference 303) (re.++ (_ re.reference 304) (re.++ (_ re.reference 305) (re.++ (_ re.reference 306) (re.++ (_ re.reference 307) (re.++ (_ re.reference 310) (re.++ (_ re.reference 311) (re.++ (_ re.reference 312) (re.++ (_ re.reference 313) (re.++ (_ re.reference 314) (re.++ (_ re.reference 315) (re.++ (_ re.reference 316) (re.++ (_ re.reference 317) (re.++ (_ re.reference 320) (re.++ (_ re.reference 321) (re.++ (_ re.reference 322) (re.++ (_ re.reference 323) (re.++ (_ re.reference 324) (re.++ (_ re.reference 325) (re.++ (_ re.reference 326) (re.++ (_ re.reference 327) (re.++ (_ re.reference 330) (re.++ (_ re.reference 331) (re.++ (_ re.reference 332) (re.++ (_ re.reference 333) (re.++ (_ re.reference 334) (re.++ (_ re.reference 335) (re.++ (_ re.reference 336) (re.++ (_ re.reference 337) (re.++ (_ re.reference 340) (re.++ (_ re.reference 341) (re.++ (_ re.reference 342) (re.++ (_ re.reference 343) (re.++ (_ re.reference 344) (re.++ (_ re.reference 345) (re.++ (_ re.reference 346) (re.++ (_ re.reference 347) (re.++ (_ re.reference 350) (re.++ (_ re.reference 351) (re.++ (_ re.reference 352) (re.++ (_ re.reference 353) (re.++ (_ re.reference 354) (re.++ (_ re.reference 355) (re.++ (_ re.reference 356) (re.++ (_ re.reference 357) (re.++ (_ re.reference 360) (re.++ (_ re.reference 361) (re.++ (_ re.reference 362) (re.++ (_ re.reference 363) (re.++ (_ re.reference 364) (re.++ (_ re.reference 365) (re.++ (_ re.reference 366) (re.++ (_ re.reference 367) (re.++ (_ re.reference 370) (re.++ (_ re.reference 371) (re.++ (_ re.reference 372) (re.++ (_ re.reference 373) (re.++ (_ re.reference 374) (re.++ (_ re.reference 375) (re.++ (_ re.reference 376) (_ re.reference 377)))))))))))))))))))))))))))))))))))))))))))))))))))))))))))))))))))))))))))))))))))))))))))))))))))))))))))))))))))))))))))))))))))))))))))))))))))))))))))))))))))))))))))))))))))))))))))))))))))))))))))))))))))))))))))))))))))))))))))))))))))))))))))))))) re.all))))

(assert (> (str.len var0) 10))

(check-sat)
(get-model)
